33D32945 STP File, STP Format Version 1.0

SECTION Comments
Name "shell_n11_d2_s46"
Problem "Euclidean Steiner Tree Problem"
Remark "Generated with STPGenerator. 2 dimensions."
END

SECTION Graph
Nodes 11
END

SECTION Coordinates
DD 0 -0.9019421937 -0.4318567809
DD 1 -0.4213155571 0.9069141091
DD 2 -0.9933188297 0.1154023505
DD 3 -0.2007169527 0.9796492765
DD 4 -0.4323775024 -0.9016926835
DD 5 -0.4420248073 0.8970028260
DD 6 -0.9840778698 -0.1777378578
DD 7 -0.9105423387 -0.4134158311
DD 8 0.8599708065 0.5103432295
DD 9 0.7072625801 -0.7069509480
DD 10 -0.4447085938 0.8956753131
END
